% instance-specific data

nb_weeks = 4;

nb_personnel = 18;
T = [JA, JA, JA, JA, JA, JA, JA, JA_F, JA_F, SA, SA, SA, SA_F, SA_F, SA_NEO, SA_NEO, SA_F_NEO, SA_F_NEO];

F = [{},{},{},{},{},{},{},{},{},{},{},{},{},{},{},{},{},{}];

S = {JANW, SAEW, JAEV, JAWH, SAWH, TSPT, CALL};


% model parameters

fairness_weight = [1.0, 1.0, 1.0, 1.0, 1.0, 1.0, 1.0];
S_balance =  {JANW, SAEW, JAEV, JAWH, SAWH, TSPT, CALL};
min_balance = 3;

